19,8	0,0	16,6	7,1	0,0	0,0	0,0	0,0	0,0	7,0
7,8	6,9	0,0	17,0	19,0	0,0	0,0	5,4	0,0	0,0
0,0	0,0	10,7	0,0	14,8	13,7	0,0	0,0	11,0	0,0
13,7	0,0	18,2	0,0	0,0	0,0	14,6	0,0	0,0	0,0
0,0	18,1	0,0	11,5	10,8	0,0	0,0	11,7	0,0	0,0
0,0	11,4	19,1	0,0	17,6	12,3	0,0	0,0	11,8	0,0
0,0	13,4	0,0	15,4	0,0	0,0	8,3	0,0	0,0	12,0
10,2	0,0	6,2	0,0	0,0	0,0	0,0	0,0	0,0	11,9
0,0	8,3	0,0	19,4	7,7	0,0	0,0	13,1	0,0	0,0
0,0	0,0	15,8	0,0	0,0	6,9	10,3	0,0	0,0	11,5
									
4,7	3,2	5,0	4,1	5,0	4,0	4,5	4,9	4,2	3,6
